Report/12-09-05/formulation.lp
maximize
 20.564x00 + 12.558000000000002x10 + 16.827x20 + 25.644999999999996x30 + 14.531999999999998x40 + 9.9x50 + 6.688000000000001x60 + 27.032x70 + 9.701x80 + 21.624x90 + 24.308000000000003x100 + 7.050000000000001x110 + 12.772x120 + 18.040000000000003x130 + 22.878x140 + 9.167x150 + 9.3x160 + 16.867x170 + 23.279999999999998x180 + 10.209000000000001x190
subject to
c0:  11.0x00 + 8.6x10 + 10.5x20 + 11.6x30 + 8.1x40 + 9.9x50 + 7.6x60 + 10.0x70 + 8.9x80 + 10.6x90 + 0.0x100 + 0.0x110 + 0.0x120 + 0.0x130 + 0.0x140 + 0.0x150 + 0.0x160 + 0.0x170 + 0.0x180 + 0.0x190<=  125.0 
c1:  8.4x00 + 7.5x10 + 10.8x20 + 10.7x30 + 9.2x40 + 0.0x50 + 0.0x60 + 11.8x70 + 0.0x80 + 10.6x90 + 11.4x100 + 0.0x110 + 0.0x120 + 9.0x130 + 8.5x140 + 0.0x150 + 0.0x160 + 7.7x170 + 9.8x180 + 0.0x190<=  100.0 
c2:  0.0x00 + 0.0x10 + 0.0x20 + 0.0x30 + 0.0x40 + 0.0x50 + 0.0x60 + 0.0x70 + 0.0x80 + 0.0x90 + 9.2x100 + 7.5x110 + 12.4x120 + 11.5x130 + 10.1x140 + 8.9x150 + 9.3x160 + 9.0x170 + 9.6x180 + 12.3x190<=  75.0 

binary
 x00  x10  x20  x30  x40  x50  x60  x70  x80  x90  x100  x110  x120  x130  x140  x150  x160  x170  x180  x190 
end