Formulation/formulation.log
This is e-upTeX, Version 3.14159265-p3.8.1-u1.23-180226-2.6 (utf8.uptex) (TeX Live 2018) (preloaded format=uplatex 2018.9.24)  31 JUL 2019 12:29
entering extended mode
 restricted \write18 enabled.
 file:line:error style messages enabled.
 %&-line parsing enabled.
**formulation.tex
(./formulation.tex
pLaTeX2e <2018-07-28u02>+1 (based on LaTeX2e <2018-04-01> patch level 5)
(/usr/local/texlive/2018/texmf-dist/tex/uplatex/base/ujarticle.cls
Document Class: ujarticle 2018/07/03 v1.8-u00 Standard upLaTeX class
\c@@paper=\count83
(/usr/local/texlive/2018/texmf-dist/tex/uplatex/base/ujsize10.clo
File: ujsize10.clo 2018/07/03 v1.8-u00 Standard upLaTeX file (size option)
LaTeX Font Info:    Font shape `JT2/mc/m/n' will be
(Font)              scaled to size 9.6222pt on input line 28.
LaTeX Font Info:    Font shape `JY2/mc/m/n' will be
(Font)              scaled to size 9.6222pt on input line 28.
)
\c@part=\count84
\c@section=\count85
\c@subsection=\count86
\c@subsubsection=\count87
\c@paragraph=\count88
\c@subparagraph=\count89
\c@figure=\count90
\c@table=\count91
\abovecaptionskip=\skip41
\belowcaptionskip=\skip42
\symmincho=\mathgroup4
LaTeX Font Info:    Overwriting symbol font `mincho' in version `bold'
(Font)                  JY2/mc/m/n --> JY2/gt/m/n on input line 615.
\toclineskip=\dimen118
\@lnumwidth=\dimen119
\bibindent=\dimen120
\heisei=\count92
)
(/usr/local/texlive/2018/texmf-dist/tex/latex/amsmath/amsmath.sty
Package: amsmath 2017/09/02 v2.17a AMS math features
\@mathmargin=\skip43

For additional information on amsmath, use the `?' option.
(/usr/local/texlive/2018/texmf-dist/tex/latex/amsmath/amstext.sty
Package: amstext 2000/06/29 v2.01 AMS text

(/usr/local/texlive/2018/texmf-dist/tex/latex/amsmath/amsgen.sty
File: amsgen.sty 1999/11/30 v2.0 generic functions
\@emptytoks=\toks15
\ex@=\dimen121
))
(/usr/local/texlive/2018/texmf-dist/tex/latex/amsmath/amsbsy.sty
Package: amsbsy 1999/11/29 v1.2d Bold Symbols
\pmbraise@=\dimen122
)
(/usr/local/texlive/2018/texmf-dist/tex/latex/amsmath/amsopn.sty
Package: amsopn 2016/03/08 v2.02 operator names
)
\inf@bad=\count93
LaTeX Info: Redefining \frac on input line 213.
\uproot@=\count94
\leftroot@=\count95
LaTeX Info: Redefining \overline on input line 375.
\classnum@=\count96
\DOTSCASE@=\count97
LaTeX Info: Redefining \ldots on input line 472.
LaTeX Info: Redefining \dots on input line 475.
LaTeX Info: Redefining \cdots on input line 596.
\Mathstrutbox@=\box42
\strutbox@=\box43
\big@size=\dimen123
LaTeX Font Info:    Redeclaring font encoding OML on input line 712.
LaTeX Font Info:    Redeclaring font encoding OMS on input line 713.
\macc@depth=\count98
\c@MaxMatrixCols=\count99
\dotsspace@=\muskip10
\c@parentequation=\count100
\dspbrk@lvl=\count101
\tag@help=\toks16
\row@=\count102
\column@=\count103
\maxfields@=\count104
\andhelp@=\toks17
\eqnshift@=\dimen124
\alignsep@=\dimen125
\tagshift@=\dimen126
\tagwidth@=\dimen127
\totwidth@=\dimen128
\lineht@=\dimen129
\@envbody=\toks18
\multlinegap=\skip44
\multlinetaggap=\skip45
\mathdisplay@stack=\toks19
LaTeX Info: Redefining \[ on input line 2817.
LaTeX Info: Redefining \] on input line 2818.
)
(/usr/local/texlive/2018/texmf-dist/tex/platex/japanese-otf-uptex/otf.sty
Package: otf 2018/02/01 v1.7b7 psitau, u0.21 ttk

(/usr/local/texlive/2018/texmf-dist/tex/latex/graphics/keyval.sty
Package: keyval 2014/10/28 v1.15 key=value parser (DPC)
\KV@toks@=\toks20
)
LaTeX Font Info:    Redeclaring symbol font `mincho' on input line 314.
LaTeX Font Info:    Overwriting symbol font `mincho' in version `normal'
(Font)                  JY2/mc/m/n --> JY2/hmc/m/n on input line 314.
LaTeX Font Info:    Overwriting symbol font `mincho' in version `bold'
(Font)                  JY2/gt/m/n --> JY2/hmc/m/n on input line 314.
LaTeX Font Info:    Overwriting symbol font `mincho' in version `bold'
(Font)                  JY2/hmc/m/n --> JY2/hmc/bx/n on input line 316.
LaTeX Font Info:    Redeclaring math alphabet \mathgt on input line 317.
LaTeX Font Info:    Overwriting math alphabet `\mathgt' in version `normal'
(Font)                  JY2/gt/m/n --> JY2/hgt/m/n on input line 317.
LaTeX Font Info:    Overwriting math alphabet `\mathgt' in version `bold'
(Font)                  JY2/gt/m/n --> JY2/hgt/m/n on input line 317.
LaTeX Font Info:    Overwriting math alphabet `\mathgt' in version `bold'
(Font)                  JY2/hgt/m/n --> JY2/hgt/bx/n on input line 318.

(/usr/local/texlive/2018/texmf-dist/tex/platex/japanese-otf/ajmacros.sty
Package: ajmacros 2005/12/25 13:52 iNOUE Koich! <inoue@ma.ns.musashi-tech.ac.jp
>
\@tempcntc=\count105
\@tempcntd=\count106
\@tempcnte=\count107
\@tempcntf=\count108
))
(/usr/local/texlive/2018/texmf-dist/tex/platex/pxchfon/pxchfon.sty
Package: pxchfon 2018/03/15 v1.2


Package pxchfon Warning: The option 'unicode(*)' is enforced, because the
(pxchfon)                preset 'sourcehan' is selected..

(/usr/local/texlive/2018/texmf-dist/tex/latex/pxufont/pxufont.sty
Package: pxufont 2017/07/07 v0.3

(/usr/local/texlive/2018/texmf-dist/tex/generic/ifptex/ifuptex.sty
Package: ifuptex 2017/10/04 v1.2c upTeX checker

(/usr/local/texlive/2018/texmf-dist/tex/generic/ifptex/ifptex.sty
Package: ifptex 2017/10/04 v1.2c pTeX checker
))))
(/usr/local/texlive/2018/texmf-dist/tex/latex/ncctools/nccmath.sty
Package: nccmath 2006/01/20 v1.3 Additional Math Commands (NCC)
\NCC@fracrulewidth=\dimen130
)
(./formulation.aux)
\openout1 = `formulation.aux'.

LaTeX Font Info:    Checking defaults for OML/cmm/m/it on input line 6.
LaTeX Font Info:    ... okay on input line 6.
LaTeX Font Info:    Checking defaults for T1/cmr/m/n on input line 6.
LaTeX Font Info:    ... okay on input line 6.
LaTeX Font Info:    Checking defaults for OT1/cmr/m/n on input line 6.
LaTeX Font Info:    ... okay on input line 6.
LaTeX Font Info:    Checking defaults for OMS/cmsy/m/n on input line 6.
LaTeX Font Info:    ... okay on input line 6.
LaTeX Font Info:    Checking defaults for OMX/cmex/m/n on input line 6.
LaTeX Font Info:    ... okay on input line 6.
LaTeX Font Info:    Checking defaults for U/cmr/m/n on input line 6.
LaTeX Font Info:    ... okay on input line 6.
LaTeX Font Info:    Checking defaults for JY2/mc/m/n on input line 6.
LaTeX Font Info:    ... okay on input line 6.
LaTeX Font Info:    Checking defaults for JT2/mc/m/n on input line 6.
LaTeX Font Info:    ... okay on input line 6.
LaTeX Font Info:    Font shape `JT2/hmc/m/n' will be
(Font)              scaled to size 9.6222pt on input line 6.
LaTeX Font Info:    Font shape `JY2/hmc/m/n' will be
(Font)              scaled to size 9.6222pt on input line 6.
Package pxchfon Info: Font tribe is 'sourcehan':
(pxchfon)                 SourceHanSerif-Regular.otf.
Package pxchfon Info: Font tribe is 'sourcehan':
(pxchfon)                 SourceHanSerif-Regular.otf.
Package pxchfon Info: Font tribe is 'sourcehan':
(pxchfon)                 SourceHanSerif-Regular.otf.
Package pxchfon Info: Font tribe is 'sourcehan':
(pxchfon)                 SourceHanSans-Medium.otf.
Package pxchfon Info: Font tribe is 'sourcehan':
(pxchfon)                 SourceHanSans-Medium.otf.
Package pxchfon Info: Font tribe is 'sourcehan':
(pxchfon)                 SourceHanSans-Medium.otf.
Package pxchfon Info: Font tribe is 'sourcehan':
(pxchfon)                 SourceHanSerif-Regular.otf.
Package pxchfon Info: Font tribe is 'sourcehan':
(pxchfon)                 SourceHanSerif-Regular.otf.
Package pxchfon Info: Font tribe is 'sourcehan':
(pxchfon)                 SourceHanSans-Medium.otf.
Package pxchfon Info: Font tribe is 'sourcehan':
(pxchfon)                 SourceHanSans-Medium.otf.
Package pxchfon Info: Font tribe is 'sourcehan':
(pxchfon)                 SourceHanSerif-Light.otf.
Package pxchfon Info: Font tribe is 'sourcehan':
(pxchfon)                 SourceHanSerif-Light.otf.
Package pxchfon Info: Font tribe is 'sourcehan':
(pxchfon)                 SourceHanSerif-Light.otf.
Package pxchfon Info: Font tribe is 'sourcehan':
(pxchfon)                 SourceHanSerif-Light.otf.
Package pxchfon Info: Font tribe is 'sourcehan':
(pxchfon)                 SourceHanSerif-Regular.otf.
Package pxchfon Info: Font tribe is 'sourcehan':
(pxchfon)                 SourceHanSerif-Regular.otf.
Package pxchfon Info: Font tribe is 'sourcehan':
(pxchfon)                 SourceHanSerif-Regular.otf.
Package pxchfon Info: Font tribe is 'sourcehan':
(pxchfon)                 SourceHanSerif-Regular.otf.
Package pxchfon Info: Font tribe is 'sourcehan':
(pxchfon)                 SourceHanSerif-Bold.otf.
Package pxchfon Info: Font tribe is 'sourcehan':
(pxchfon)                 SourceHanSerif-Bold.otf.
Package pxchfon Info: Font tribe is 'sourcehan':
(pxchfon)                 SourceHanSerif-Bold.otf.
Package pxchfon Info: Font tribe is 'sourcehan':
(pxchfon)                 SourceHanSerif-Bold.otf.
Package pxchfon Info: Font tribe is 'sourcehan':
(pxchfon)                 SourceHanSans-Regular.otf.
Package pxchfon Info: Font tribe is 'sourcehan':
(pxchfon)                 SourceHanSans-Regular.otf.
Package pxchfon Info: Font tribe is 'sourcehan':
(pxchfon)                 SourceHanSans-Regular.otf.
Package pxchfon Info: Font tribe is 'sourcehan':
(pxchfon)                 SourceHanSans-Regular.otf.
Package pxchfon Info: Font tribe is 'sourcehan':
(pxchfon)                 SourceHanSans-Bold.otf.
Package pxchfon Info: Font tribe is 'sourcehan':
(pxchfon)                 SourceHanSans-Bold.otf.
Package pxchfon Info: Font tribe is 'sourcehan':
(pxchfon)                 SourceHanSans-Bold.otf.
Package pxchfon Info: Font tribe is 'sourcehan':
(pxchfon)                 SourceHanSans-Bold.otf.
Package pxchfon Info: Font tribe is 'sourcehan':
(pxchfon)                 SourceHanSans-Heavy.otf.
Package pxchfon Info: Font tribe is 'sourcehan':
(pxchfon)                 SourceHanSans-Heavy.otf.
Package pxchfon Info: Font tribe is 'sourcehan':
(pxchfon)                 SourceHanSans-Heavy.otf.
Package pxchfon Info: Font tribe is 'sourcehan':
(pxchfon)                 SourceHanSans-Heavy.otf.
Package pxchfon Info: Font tribe is 'sourcehan':
(pxchfon)                 SourceHanSans-Medium.otf.
Package pxchfon Info: Font tribe is 'sourcehan':
(pxchfon)                 SourceHanSans-Medium.otf.
Package pxchfon Info: Font tribe is 'sourcehan':
(pxchfon)                 SourceHanSans-Medium.otf.
Package pxchfon Info: Font tribe is 'sourcehan':
(pxchfon)                 SourceHanSans-Medium.otf.
Package pxchfon Info: Font tribe is 'sourcehan':
(pxchfon)                 SourceHanSerif-Light.otf.
Package pxchfon Info: Font tribe is 'sourcehan':
(pxchfon)                 SourceHanSerif-Light.otf.
Package pxchfon Info: Font tribe is 'sourcehan':
(pxchfon)                 SourceHanSerif-Light.otf.
Package pxchfon Info: Font tribe is 'sourcehan':
(pxchfon)                 SourceHanSerif-Light.otf.
Package pxchfon Info: Font tribe is 'sourcehan':
(pxchfon)                 SourceHanSerif-Light.otf.
Package pxchfon Info: Font tribe is 'sourcehan':
(pxchfon)                 SourceHanSerif-Light.otf.
Package pxchfon Info: Font tribe is 'sourcehan':
(pxchfon)                 SourceHanSerif-Light.otf.
Package pxchfon Info: Font tribe is 'sourcehan':
(pxchfon)                 SourceHanSerif-Light.otf.
Package pxchfon Info: Font tribe is 'sourcehan':
(pxchfon)                 SourceHanSerif-Light.otf.
Package pxchfon Info: Font tribe is 'sourcehan':
(pxchfon)                 SourceHanSerif-Light.otf.
Package pxchfon Info: Font tribe is 'sourcehan':
(pxchfon)                 SourceHanSerif-Regular.otf.
Package pxchfon Info: Font tribe is 'sourcehan':
(pxchfon)                 SourceHanSerif-Regular.otf.
Package pxchfon Info: Font tribe is 'sourcehan':
(pxchfon)                 SourceHanSerif-Regular.otf.
Package pxchfon Info: Font tribe is 'sourcehan':
(pxchfon)                 SourceHanSerif-Regular.otf.
Package pxchfon Info: Font tribe is 'sourcehan':
(pxchfon)                 SourceHanSerif-Regular.otf.
Package pxchfon Info: Font tribe is 'sourcehan':
(pxchfon)                 SourceHanSerif-Regular.otf.
Package pxchfon Info: Font tribe is 'sourcehan':
(pxchfon)                 SourceHanSerif-Regular.otf.
Package pxchfon Info: Font tribe is 'sourcehan':
(pxchfon)                 SourceHanSerif-Regular.otf.
Package pxchfon Info: Font tribe is 'sourcehan':
(pxchfon)                 SourceHanSerif-Regular.otf.
Package pxchfon Info: Font tribe is 'sourcehan':
(pxchfon)                 SourceHanSerif-Regular.otf.
Package pxchfon Info: Font tribe is 'sourcehan':
(pxchfon)                 SourceHanSerif-Bold.otf.
Package pxchfon Info: Font tribe is 'sourcehan':
(pxchfon)                 SourceHanSerif-Bold.otf.
Package pxchfon Info: Font tribe is 'sourcehan':
(pxchfon)                 SourceHanSerif-Bold.otf.
Package pxchfon Info: Font tribe is 'sourcehan':
(pxchfon)                 SourceHanSerif-Bold.otf.
Package pxchfon Info: Font tribe is 'sourcehan':
(pxchfon)                 SourceHanSerif-Bold.otf.
Package pxchfon Info: Font tribe is 'sourcehan':
(pxchfon)                 SourceHanSerif-Bold.otf.
Package pxchfon Info: Font tribe is 'sourcehan':
(pxchfon)                 SourceHanSerif-Bold.otf.
Package pxchfon Info: Font tribe is 'sourcehan':
(pxchfon)                 SourceHanSerif-Bold.otf.
Package pxchfon Info: Font tribe is 'sourcehan':
(pxchfon)                 SourceHanSerif-Bold.otf.
Package pxchfon Info: Font tribe is 'sourcehan':
(pxchfon)                 SourceHanSerif-Bold.otf.
Package pxchfon Info: Font tribe is 'sourcehan':
(pxchfon)                 SourceHanSans-Regular.otf.
Package pxchfon Info: Font tribe is 'sourcehan':
(pxchfon)                 SourceHanSans-Regular.otf.
Package pxchfon Info: Font tribe is 'sourcehan':
(pxchfon)                 SourceHanSans-Regular.otf.
Package pxchfon Info: Font tribe is 'sourcehan':
(pxchfon)                 SourceHanSans-Regular.otf.
Package pxchfon Info: Font tribe is 'sourcehan':
(pxchfon)                 SourceHanSans-Regular.otf.
Package pxchfon Info: Font tribe is 'sourcehan':
(pxchfon)                 SourceHanSans-Regular.otf.
Package pxchfon Info: Font tribe is 'sourcehan':
(pxchfon)                 SourceHanSans-Regular.otf.
Package pxchfon Info: Font tribe is 'sourcehan':
(pxchfon)                 SourceHanSans-Regular.otf.
Package pxchfon Info: Font tribe is 'sourcehan':
(pxchfon)                 SourceHanSans-Regular.otf.
Package pxchfon Info: Font tribe is 'sourcehan':
(pxchfon)                 SourceHanSans-Regular.otf.
Package pxchfon Info: Font tribe is 'sourcehan':
(pxchfon)                 SourceHanSans-Bold.otf.
Package pxchfon Info: Font tribe is 'sourcehan':
(pxchfon)                 SourceHanSans-Bold.otf.
Package pxchfon Info: Font tribe is 'sourcehan':
(pxchfon)                 SourceHanSans-Bold.otf.
Package pxchfon Info: Font tribe is 'sourcehan':
(pxchfon)                 SourceHanSans-Bold.otf.
Package pxchfon Info: Font tribe is 'sourcehan':
(pxchfon)                 SourceHanSans-Bold.otf.
Package pxchfon Info: Font tribe is 'sourcehan':
(pxchfon)                 SourceHanSans-Bold.otf.
Package pxchfon Info: Font tribe is 'sourcehan':
(pxchfon)                 SourceHanSans-Bold.otf.
Package pxchfon Info: Font tribe is 'sourcehan':
(pxchfon)                 SourceHanSans-Bold.otf.
Package pxchfon Info: Font tribe is 'sourcehan':
(pxchfon)                 SourceHanSans-Bold.otf.
Package pxchfon Info: Font tribe is 'sourcehan':
(pxchfon)                 SourceHanSans-Bold.otf.
Package pxchfon Info: Font tribe is 'sourcehan':
(pxchfon)                 SourceHanSans-Heavy.otf.
Package pxchfon Info: Font tribe is 'sourcehan':
(pxchfon)                 SourceHanSans-Heavy.otf.
Package pxchfon Info: Font tribe is 'sourcehan':
(pxchfon)                 SourceHanSans-Heavy.otf.
Package pxchfon Info: Font tribe is 'sourcehan':
(pxchfon)                 SourceHanSans-Heavy.otf.
Package pxchfon Info: Font tribe is 'sourcehan':
(pxchfon)                 SourceHanSans-Heavy.otf.
Package pxchfon Info: Font tribe is 'sourcehan':
(pxchfon)                 SourceHanSans-Heavy.otf.
Package pxchfon Info: Font tribe is 'sourcehan':
(pxchfon)                 SourceHanSans-Heavy.otf.
Package pxchfon Info: Font tribe is 'sourcehan':
(pxchfon)                 SourceHanSans-Heavy.otf.
Package pxchfon Info: Font tribe is 'sourcehan':
(pxchfon)                 SourceHanSans-Heavy.otf.
Package pxchfon Info: Font tribe is 'sourcehan':
(pxchfon)                 SourceHanSans-Heavy.otf.
Package pxchfon Info: Font tribe is 'sourcehan':
(pxchfon)                 SourceHanSans-Medium.otf.
Package pxchfon Info: Font tribe is 'sourcehan':
(pxchfon)                 SourceHanSans-Medium.otf.
Package pxchfon Info: Font tribe is 'sourcehan':
(pxchfon)                 SourceHanSans-Medium.otf.
Package pxchfon Info: Font tribe is 'sourcehan':
(pxchfon)                 SourceHanSans-Medium.otf.
Package pxchfon Info: Font tribe is 'sourcehan':
(pxchfon)                 SourceHanSans-Medium.otf.
Package pxchfon Info: Font tribe is 'sourcehan':
(pxchfon)                 SourceHanSans-Medium.otf.
Package pxchfon Info: Font tribe is 'sourcehan':
(pxchfon)                 SourceHanSans-Medium.otf.
Package pxchfon Info: Font tribe is 'sourcehan':
(pxchfon)                 SourceHanSans-Medium.otf.
Package pxchfon Info: Font tribe is 'sourcehan':
(pxchfon)                 SourceHanSans-Medium.otf.
Package pxchfon Info: Font tribe is 'sourcehan':
(pxchfon)                 SourceHanSans-Medium.otf.
LaTeX Font Info:    Font shape `JY2/hmc/m/n' will be
(Font)              scaled to size 6.73553pt on input line 9.
LaTeX Font Info:    Font shape `JY2/hmc/m/n' will be
(Font)              scaled to size 4.8111pt on input line 9.

Overfull \hbox (42.44482pt too wide) detected at line 55
[]
 []

[1

]
Overfull \hbox (43.14851pt too wide) detected at line 78
[]
 []

LaTeX Font Info:    Font shape `JT2/hgt/m/n' will be
(Font)              scaled to size 9.6222pt on input line 89.
LaTeX Font Info:    Font shape `JY2/hgt/m/n' will be
(Font)              scaled to size 9.6222pt on input line 89.
LaTeX Font Info:    Font shape `JT2/hmc/m/n' will be
(Font)              scaled to size 6.73553pt on input line 89.
LaTeX Font Info:    Font shape `JT2/hmc/m/n' will be
(Font)              scaled to size 4.8111pt on input line 89.
[2] [3] (./formulation.aux) ) 
Here is how much of TeX's memory you used:
 4310 strings out of 493239
 62733 string characters out of 6144407
 141669 words of memory out of 5000000
 8312 multiletter control sequences out of 15000+600000
 8475 words of font info for 46 fonts, out of 8000000 for 9000
 929 hyphenation exceptions out of 8191
 31i,14n,52p,440b,991s stack positions out of 5000i,500n,10000p,200000b,80000s

Output written on formulation.dvi (3 pages, 13728 bytes).
